2601.19
0 13 67 4 6 7 8 1 3 2 9 10 5 11 0
0 16 21 20 22 23 24 96 14 18 141 19 15 17 12 0
0 35 36 28 31 26 25 40 33 30 34 29 32 27 37 0
0 48 43 41 42 44 52 45 39 105 50 38 49 51 46 47 0
0 53 59 70 60 61 57 58 64 65 54 62 142 55 56 63 0
0 86 69 80 79 74 75 73 72 71 66 68 76 77 78 0
0 83 84 85 82 81 95 88 94 87 92 93 91 89 90 0
0 98 97 99 114 101 100 104 106 107 110 102 108 103 0
0 111 109 123 117 118 128 115 116 113 112 120 119 0
0 122 125 124 134 133 132 138 140 121 131 129 130 127 126 0
0 136 135 143 137 144 146 145 139 0
0 149 148 150 147 0
